9 99 72 86 24 15 85 38 10 33 84 21 90 31 42 79 66 87 39 12 16 60 77 49 95 28 57 8 36 18 61 6 55 46 80 63 74 73 37 27 92 26 32 93 97 14 82 78 44 59 83 3 48 20 68 35 52 19 25 41 34 23 89 70 81 17 43 2 64 1 40 13 29 76 11 0 58 65 69 5 67 96 71 4 91 22 98 7 47 51 88 54 94 45 50 62 30 53 75 56 

